200
1000
239
238
237
237
237
237
237
237
236
235
235
235
234
233
233
232
232
231
231
231
230
230
230
229
229
228
228
227
227
227
226
226
226
226
225
225
224
224
224
223
223
223
222
221
221
221
221
219
219
219
218
217
217
217
216
216
216
216
214
214
214
214
214
213
212
211
211
210
210
210
209
209
208
208
206
206
206
205
204
203
203
203
202
201
201
201
201
200
200
199
199
198
198
198
197
197
197
197
196
196
196
196
195
195
194
194
193
193
192
191
191
191
190
190
189
189
189
189
189
189
189
189
188
188
188
188
188
187
187
187
186
186
185
185
184
183
183
183
183
183
182
181
181
181
180
180
179
179
179
179
178
177
177
177
176
175
175
174
174
174
173
173
173
173
172
172
172
172
171
171
171
171
170
170
169
169
169
168
168
167
167
167
167
167
166
166
166
165
165
165
164
164
163
163
163
162
162
162
162
162
